p cnf 851 2731
851 -63 -62 0
-851 63 0
-851 62 0
-849 63 62 0
849 -63 0
849 -62 0
850 -61 -60 0
-850 61 0
-850 60 0
-848 61 60 0
848 -61 0
848 -60 0
839 -851 -850 0
-839 851 0
-839 850 0
-846 851 850 0
846 -851 0
846 -850 0
847 -849 -848 0
-847 849 0
-847 848 0
-831 849 848 0
831 -849 0
831 -848 0
833 -847 -846 0
-833 847 0
-833 846 0
-837 847 846 0
837 -847 0
837 -846 0
845 -59 -58 0
-845 59 0
-845 58 0
-843 59 58 0
843 -59 0
843 -58 0
844 -57 -56 0
-844 57 0
-844 56 0
-842 57 56 0
842 -57 0
842 -56 0
838 -845 -844 0
-838 845 0
-838 844 0
-840 845 844 0
840 -845 0
840 -844 0
841 -843 -842 0
-841 843 0
-841 842 0
-830 843 842 0
830 -843 0
830 -842 0
832 -841 -840 0
-832 841 0
-832 840 0
-836 841 840 0
836 -841 0
836 -840 0
791 -839 -838 0
-791 839 0
-791 838 0
-834 839 838 0
834 -839 0
834 -838 0
835 -837 -836 0
-835 837 0
-835 836 0
-822 837 836 0
822 -837 0
822 -836 0
826 -835 -834 0
-826 835 0
-826 834 0
-824 835 834 0
824 -835 0
824 -834 0
827 -833 -832 0
-827 833 0
-827 832 0
-828 833 832 0
828 -833 0
828 -832 0
829 -831 -830 0
-829 831 0
-829 830 0
-765 831 830 0
765 -831 0
765 -830 0
825 -829 -828 0
-825 829 0
-825 828 0
-823 829 828 0
823 -829 0
823 -828 0
773 -827 -826 0
-773 827 0
-773 826 0
-785 827 826 0
785 -827 0
785 -826 0
767 -825 -824 0
-767 825 0
-767 824 0
-789 825 824 0
789 -825 0
789 -824 0
771 -823 -822 0
-771 823 0
-771 822 0
-783 823 822 0
783 -823 0
783 -822 0
821 -55 -54 0
-821 55 0
-821 54 0
-819 55 54 0
819 -55 0
819 -54 0
820 -53 -52 0
-820 53 0
-820 52 0
-818 53 52 0
818 -53 0
818 -52 0
809 -821 -820 0
-809 821 0
-809 820 0
-816 821 820 0
816 -821 0
816 -820 0
817 -819 -818 0
-817 819 0
-817 818 0
-801 819 818 0
801 -819 0
801 -818 0
803 -817 -816 0
-803 817 0
-803 816 0
-807 817 816 0
807 -817 0
807 -816 0
815 -51 -50 0
-815 51 0
-815 50 0
-813 51 50 0
813 -51 0
813 -50 0
814 -49 -48 0
-814 49 0
-814 48 0
-812 49 48 0
812 -49 0
812 -48 0
808 -815 -814 0
-808 815 0
-808 814 0
-810 815 814 0
810 -815 0
810 -814 0
811 -813 -812 0
-811 813 0
-811 812 0
-800 813 812 0
800 -813 0
800 -812 0
802 -811 -810 0
-802 811 0
-802 810 0
-806 811 810 0
806 -811 0
806 -810 0
790 -809 -808 0
-790 809 0
-790 808 0
-804 809 808 0
804 -809 0
804 -808 0
805 -807 -806 0
-805 807 0
-805 806 0
-792 807 806 0
792 -807 0
792 -806 0
796 -805 -804 0
-796 805 0
-796 804 0
-794 805 804 0
794 -805 0
794 -804 0
797 -803 -802 0
-797 803 0
-797 802 0
-798 803 802 0
798 -803 0
798 -802 0
799 -801 -800 0
-799 801 0
-799 800 0
-764 801 800 0
764 -801 0
764 -800 0
795 -799 -798 0
-795 799 0
-795 798 0
-793 799 798 0
793 -799 0
793 -798 0
772 -797 -796 0
-772 797 0
-772 796 0
-784 797 796 0
784 -797 0
784 -796 0
766 -795 -794 0
-766 795 0
-766 794 0
-788 795 794 0
788 -795 0
788 -794 0
770 -793 -792 0
-770 793 0
-770 792 0
-782 793 792 0
782 -793 0
782 -792 0
631 -791 -790 0
-631 791 0
-631 790 0
-786 791 790 0
786 -791 0
786 -790 0
787 -789 -788 0
-787 789 0
-787 788 0
-774 789 788 0
774 -789 0
774 -788 0
778 -787 -786 0
-778 787 0
-778 786 0
-776 787 786 0
776 -787 0
776 -786 0
779 -785 -784 0
-779 785 0
-779 784 0
-780 785 784 0
780 -785 0
780 -784 0
781 -783 -782 0
-781 783 0
-781 782 0
-742 783 782 0
742 -783 0
742 -782 0
777 -781 -780 0
-777 781 0
-777 780 0
-775 781 780 0
775 -781 0
775 -780 0
754 -779 -778 0
-754 779 0
-754 778 0
-752 779 778 0
752 -779 0
752 -778 0
750 -777 -776 0
-750 777 0
-750 776 0
-748 777 776 0
748 -777 0
748 -776 0
746 -775 -774 0
-746 775 0
-746 774 0
-744 775 774 0
744 -775 0
744 -774 0
755 -773 -772 0
-755 773 0
-755 772 0
-768 773 772 0
768 -773 0
768 -772 0
769 -771 -770 0
-769 771 0
-769 770 0
-756 771 770 0
756 -771 0
756 -770 0
760 -769 -768 0
-760 769 0
-760 768 0
-758 769 768 0
758 -769 0
758 -768 0
761 -767 -766 0
-761 767 0
-761 766 0
-762 767 766 0
762 -767 0
762 -766 0
763 -765 -764 0
-763 765 0
-763 764 0
-555 765 764 0
555 -765 0
555 -764 0
759 -763 -762 0
-759 763 0
-759 762 0
-757 763 762 0
757 -763 0
757 -762 0
753 -761 -760 0
-753 761 0
-753 760 0
-751 761 760 0
751 -761 0
751 -760 0
749 -759 -758 0
-749 759 0
-749 758 0
-747 759 758 0
747 -759 0
747 -758 0
745 -757 -756 0
-745 757 0
-745 756 0
-743 757 756 0
743 -757 0
743 -756 0
581 -755 -754 0
-581 755 0
-581 754 0
-613 755 754 0
613 -755 0
613 -754 0
563 -753 -752 0
-563 753 0
-563 752 0
-625 753 752 0
625 -753 0
625 -752 0
575 -751 -750 0
-575 751 0
-575 750 0
-607 751 750 0
607 -751 0
607 -750 0
557 -749 -748 0
-557 749 0
-557 748 0
-629 749 748 0
629 -749 0
629 -748 0
579 -747 -746 0
-579 747 0
-579 746 0
-611 747 746 0
611 -747 0
611 -746 0
561 -745 -744 0
-561 745 0
-561 744 0
-623 745 744 0
623 -745 0
623 -744 0
573 -743 -742 0
-573 743 0
-573 742 0
-605 743 742 0
605 -743 0
605 -742 0
741 -47 -46 0
-741 47 0
-741 46 0
-739 47 46 0
739 -47 0
739 -46 0
740 -45 -44 0
-740 45 0
-740 44 0
-738 45 44 0
738 -45 0
738 -44 0
729 -741 -740 0
-729 741 0
-729 740 0
-736 741 740 0
736 -741 0
736 -740 0
737 -739 -738 0
-737 739 0
-737 738 0
-721 739 738 0
721 -739 0
721 -738 0
723 -737 -736 0
-723 737 0
-723 736 0
-727 737 736 0
727 -737 0
727 -736 0
735 -43 -42 0
-735 43 0
-735 42 0
-733 43 42 0
733 -43 0
733 -42 0
734 -41 -40 0
-734 41 0
-734 40 0
-732 41 40 0
732 -41 0
732 -40 0
728 -735 -734 0
-728 735 0
-728 734 0
-730 735 734 0
730 -735 0
730 -734 0
731 -733 -732 0
-731 733 0
-731 732 0
-720 733 732 0
720 -733 0
720 -732 0
722 -731 -730 0
-722 731 0
-722 730 0
-726 731 730 0
726 -731 0
726 -730 0
681 -729 -728 0
-681 729 0
-681 728 0
-724 729 728 0
724 -729 0
724 -728 0
725 -727 -726 0
-725 727 0
-725 726 0
-712 727 726 0
712 -727 0
712 -726 0
716 -725 -724 0
-716 725 0
-716 724 0
-714 725 724 0
714 -725 0
714 -724 0
717 -723 -722 0
-717 723 0
-717 722 0
-718 723 722 0
718 -723 0
718 -722 0
719 -721 -720 0
-719 721 0
-719 720 0
-655 721 720 0
655 -721 0
655 -720 0
715 -719 -718 0
-715 719 0
-715 718 0
-713 719 718 0
713 -719 0
713 -718 0
663 -717 -716 0
-663 717 0
-663 716 0
-675 717 716 0
675 -717 0
675 -716 0
657 -715 -714 0
-657 715 0
-657 714 0
-679 715 714 0
679 -715 0
679 -714 0
661 -713 -712 0
-661 713 0
-661 712 0
-673 713 712 0
673 -713 0
673 -712 0
711 -39 -38 0
-711 39 0
-711 38 0
-709 39 38 0
709 -39 0
709 -38 0
710 -37 -36 0
-710 37 0
-710 36 0
-708 37 36 0
708 -37 0
708 -36 0
699 -711 -710 0
-699 711 0
-699 710 0
-706 711 710 0
706 -711 0
706 -710 0
707 -709 -708 0
-707 709 0
-707 708 0
-691 709 708 0
691 -709 0
691 -708 0
693 -707 -706 0
-693 707 0
-693 706 0
-697 707 706 0
697 -707 0
697 -706 0
705 -35 -34 0
-705 35 0
-705 34 0
-703 35 34 0
703 -35 0
703 -34 0
704 -33 -32 0
-704 33 0
-704 32 0
-702 33 32 0
702 -33 0
702 -32 0
698 -705 -704 0
-698 705 0
-698 704 0
-700 705 704 0
700 -705 0
700 -704 0
701 -703 -702 0
-701 703 0
-701 702 0
-690 703 702 0
690 -703 0
690 -702 0
692 -701 -700 0
-692 701 0
-692 700 0
-696 701 700 0
696 -701 0
696 -700 0
680 -699 -698 0
-680 699 0
-680 698 0
-694 699 698 0
694 -699 0
694 -698 0
695 -697 -696 0
-695 697 0
-695 696 0
-682 697 696 0
682 -697 0
682 -696 0
686 -695 -694 0
-686 695 0
-686 694 0
-684 695 694 0
684 -695 0
684 -694 0
687 -693 -692 0
-687 693 0
-687 692 0
-688 693 692 0
688 -693 0
688 -692 0
689 -691 -690 0
-689 691 0
-689 690 0
-654 691 690 0
654 -691 0
654 -690 0
685 -689 -688 0
-685 689 0
-685 688 0
-683 689 688 0
683 -689 0
683 -688 0
662 -687 -686 0
-662 687 0
-662 686 0
-674 687 686 0
674 -687 0
674 -686 0
656 -685 -684 0
-656 685 0
-656 684 0
-678 685 684 0
678 -685 0
678 -684 0
660 -683 -682 0
-660 683 0
-660 682 0
-672 683 682 0
672 -683 0
672 -682 0
630 -681 -680 0
-630 681 0
-630 680 0
-676 681 680 0
676 -681 0
676 -680 0
677 -679 -678 0
-677 679 0
-677 678 0
-664 679 678 0
664 -679 0
664 -678 0
668 -677 -676 0
-668 677 0
-668 676 0
-666 677 676 0
666 -677 0
666 -676 0
669 -675 -674 0
-669 675 0
-669 674 0
-670 675 674 0
670 -675 0
670 -674 0
671 -673 -672 0
-671 673 0
-671 672 0
-632 673 672 0
632 -673 0
632 -672 0
667 -671 -670 0
-667 671 0
-667 670 0
-665 671 670 0
665 -671 0
665 -670 0
644 -669 -668 0
-644 669 0
-644 668 0
-642 669 668 0
642 -669 0
642 -668 0
640 -667 -666 0
-640 667 0
-640 666 0
-638 667 666 0
638 -667 0
638 -666 0
636 -665 -664 0
-636 665 0
-636 664 0
-634 665 664 0
634 -665 0
634 -664 0
645 -663 -662 0
-645 663 0
-645 662 0
-658 663 662 0
658 -663 0
658 -662 0
659 -661 -660 0
-659 661 0
-659 660 0
-646 661 660 0
646 -661 0
646 -660 0
650 -659 -658 0
-650 659 0
-650 658 0
-648 659 658 0
648 -659 0
648 -658 0
651 -657 -656 0
-651 657 0
-651 656 0
-652 657 656 0
652 -657 0
652 -656 0
653 -655 -654 0
-653 655 0
-653 654 0
-554 655 654 0
554 -655 0
554 -654 0
649 -653 -652 0
-649 653 0
-649 652 0
-647 653 652 0
647 -653 0
647 -652 0
643 -651 -650 0
-643 651 0
-643 650 0
-641 651 650 0
641 -651 0
641 -650 0
639 -649 -648 0
-639 649 0
-639 648 0
-637 649 648 0
637 -649 0
637 -648 0
635 -647 -646 0
-635 647 0
-635 646 0
-633 647 646 0
633 -647 0
633 -646 0
580 -645 -644 0
-580 645 0
-580 644 0
-612 645 644 0
612 -645 0
612 -644 0
562 -643 -642 0
-562 643 0
-562 642 0
-624 643 642 0
624 -643 0
624 -642 0
574 -641 -640 0
-574 641 0
-574 640 0
-606 641 640 0
606 -641 0
606 -640 0
556 -639 -638 0
-556 639 0
-556 638 0
-628 639 638 0
628 -639 0
628 -638 0
578 -637 -636 0
-578 637 0
-578 636 0
-610 637 636 0
610 -637 0
610 -636 0
560 -635 -634 0
-560 635 0
-560 634 0
-622 635 634 0
622 -635 0
622 -634 0
572 -633 -632 0
-572 633 0
-572 632 0
-604 633 632 0
604 -633 0
604 -632 0
169 -631 -630 0
-169 631 0
-169 630 0
-626 631 630 0
626 -631 0
626 -630 0
627 -629 -628 0
-627 629 0
-627 628 0
-614 629 628 0
614 -629 0
614 -628 0
618 -627 -626 0
-618 627 0
-618 626 0
-616 627 626 0
616 -627 0
616 -626 0
619 -625 -624 0
-619 625 0
-619 624 0
-620 625 624 0
620 -625 0
620 -624 0
621 -623 -622 0
-621 623 0
-621 622 0
-582 623 622 0
582 -623 0
582 -622 0
617 -621 -620 0
-617 621 0
-617 620 0
-615 621 620 0
615 -621 0
615 -620 0
594 -619 -618 0
-594 619 0
-594 618 0
-592 619 618 0
592 -619 0
592 -618 0
590 -617 -616 0
-590 617 0
-590 616 0
-588 617 616 0
588 -617 0
588 -616 0
586 -615 -614 0
-586 615 0
-586 614 0
-584 615 614 0
584 -615 0
584 -614 0
595 -613 -612 0
-595 613 0
-595 612 0
-608 613 612 0
608 -613 0
608 -612 0
609 -611 -610 0
-609 611 0
-609 610 0
-596 611 610 0
596 -611 0
596 -610 0
600 -609 -608 0
-600 609 0
-600 608 0
-598 609 608 0
598 -609 0
598 -608 0
601 -607 -606 0
-601 607 0
-601 606 0
-602 607 606 0
602 -607 0
602 -606 0
603 -605 -604 0
-603 605 0
-603 604 0
-504 605 604 0
504 -605 0
504 -604 0
599 -603 -602 0
-599 603 0
-599 602 0
-597 603 602 0
597 -603 0
597 -602 0
593 -601 -600 0
-593 601 0
-593 600 0
-591 601 600 0
591 -601 0
591 -600 0
589 -599 -598 0
-589 599 0
-589 598 0
-587 599 598 0
587 -599 0
587 -598 0
585 -597 -596 0
-585 597 0
-585 596 0
-583 597 596 0
583 -597 0
583 -596 0
-595 -594 0
-530 595 594 0
530 -595 0
530 -594 0
528 -593 -592 0
-528 593 0
-528 592 0
-526 593 592 0
526 -593 0
526 -592 0
524 -591 -590 0
-524 591 0
-524 590 0
-522 591 590 0
522 -591 0
522 -590 0
520 -589 -588 0
-520 589 0
-520 588 0
-518 589 588 0
518 -589 0
518 -588 0
516 -587 -586 0
-516 587 0
-516 586 0
-514 587 586 0
514 -587 0
514 -586 0
512 -585 -584 0
-512 585 0
-512 584 0
-510 585 584 0
510 -585 0
510 -584 0
508 -583 -582 0
-508 583 0
-508 582 0
-506 583 582 0
506 -583 0
506 -582 0
-581 -580 0
-576 581 580 0
576 -581 0
576 -580 0
577 -579 -578 0
-577 579 0
-577 578 0
-564 579 578 0
564 -579 0
564 -578 0
568 -577 -576 0
-568 577 0
-568 576 0
-566 577 576 0
566 -577 0
566 -576 0
569 -575 -574 0
-569 575 0
-569 574 0
-570 575 574 0
570 -575 0
570 -574 0
571 -573 -572 0
-571 573 0
-571 572 0
-532 573 572 0
532 -573 0
532 -572 0
567 -571 -570 0
-567 571 0
-567 570 0
-565 571 570 0
565 -571 0
565 -570 0
544 -569 -568 0
-544 569 0
-544 568 0
-542 569 568 0
542 -569 0
542 -568 0
540 -567 -566 0
-540 567 0
-540 566 0
-538 567 566 0
538 -567 0
538 -566 0
536 -565 -564 0
-536 565 0
-536 564 0
-534 565 564 0
534 -565 0
534 -564 0
545 -563 -562 0
-545 563 0
-545 562 0
-558 563 562 0
558 -563 0
558 -562 0
559 -561 -560 0
-559 561 0
-559 560 0
-546 561 560 0
546 -561 0
546 -560 0
550 -559 -558 0
-550 559 0
-550 558 0
-548 559 558 0
548 -559 0
548 -558 0
551 -557 -556 0
-551 557 0
-551 556 0
-552 557 556 0
552 -557 0
552 -556 0
553 -555 -554 0
-553 555 0
-553 554 0
-72 555 554 0
72 -555 0
72 -554 0
549 -553 -552 0
-549 553 0
-549 552 0
-547 553 552 0
547 -553 0
547 -552 0
543 -551 -550 0
-543 551 0
-543 550 0
-541 551 550 0
541 -551 0
541 -550 0
539 -549 -548 0
-539 549 0
-539 548 0
-537 549 548 0
537 -549 0
537 -548 0
535 -547 -546 0
-535 547 0
-535 546 0
-533 547 546 0
533 -547 0
533 -546 0
531 -545 -544 0
-531 545 0
-531 544 0
-529 545 544 0
529 -545 0
529 -544 0
527 -543 -542 0
-527 543 0
-527 542 0
-525 543 542 0
525 -543 0
525 -542 0
523 -541 -540 0
-523 541 0
-523 540 0
-521 541 540 0
521 -541 0
521 -540 0
519 -539 -538 0
-519 539 0
-519 538 0
-517 539 538 0
517 -539 0
517 -538 0
515 -537 -536 0
-515 537 0
-515 536 0
-513 537 536 0
513 -537 0
513 -536 0
511 -535 -534 0
-511 535 0
-511 534 0
-509 535 534 0
509 -535 0
509 -534 0
507 -533 -532 0
-507 533 0
-507 532 0
-505 533 532 0
505 -533 0
505 -532 0
94 -531 -530 0
-94 531 0
-94 530 0
-158 531 530 0
158 -531 0
158 -530 0
110 -529 -528 0
-110 529 0
-110 528 0
-134 529 528 0
134 -529 0
134 -528 0
80 -527 -526 0
-80 527 0
-80 526 0
-166 527 526 0
166 -527 0
166 -526 0
118 -525 -524 0
-118 525 0
-118 524 0
-140 525 524 0
140 -525 0
140 -524 0
88 -523 -522 0
-88 523 0
-88 522 0
-152 523 522 0
152 -523 0
152 -522 0
104 -521 -520 0
-104 521 0
-104 520 0
-128 521 520 0
128 -521 0
128 -520 0
74 -519 -518 0
-74 519 0
-74 518 0
-168 519 518 0
168 -519 0
168 -518 0
120 -517 -516 0
-120 517 0
-120 516 0
-142 517 516 0
142 -517 0
142 -516 0
92 -515 -514 0
-92 515 0
-92 514 0
-156 515 514 0
156 -515 0
156 -514 0
108 -513 -512 0
-108 513 0
-108 512 0
-132 513 512 0
132 -513 0
132 -512 0
78 -511 -510 0
-78 511 0
-78 510 0
-164 511 510 0
164 -511 0
164 -510 0
116 -509 -508 0
-116 509 0
-116 508 0
-138 509 508 0
138 -509 0
138 -508 0
86 -507 -506 0
-86 507 0
-86 506 0
-150 507 506 0
150 -507 0
150 -506 0
102 -505 -504 0
-102 505 0
-102 504 0
-126 505 504 0
126 -505 0
126 -504 0
503 -31 -30 0
-503 31 0
-503 30 0
-501 31 30 0
501 -31 0
501 -30 0
502 -29 -28 0
-502 29 0
-502 28 0
-500 29 28 0
500 -29 0
500 -28 0
491 -503 -502 0
-491 503 0
-491 502 0
-498 503 502 0
498 -503 0
498 -502 0
499 -501 -500 0
-499 501 0
-499 500 0
-483 501 500 0
483 -501 0
483 -500 0
485 -499 -498 0
-485 499 0
-485 498 0
-489 499 498 0
489 -499 0
489 -498 0
497 -27 -26 0
-497 27 0
-497 26 0
-495 27 26 0
495 -27 0
495 -26 0
496 -25 -24 0
-496 25 0
-496 24 0
-494 25 24 0
494 -25 0
494 -24 0
490 -497 -496 0
-490 497 0
-490 496 0
-492 497 496 0
492 -497 0
492 -496 0
493 -495 -494 0
-493 495 0
-493 494 0
-482 495 494 0
482 -495 0
482 -494 0
484 -493 -492 0
-484 493 0
-484 492 0
-488 493 492 0
488 -493 0
488 -492 0
443 -491 -490 0
-443 491 0
-443 490 0
-486 491 490 0
486 -491 0
486 -490 0
487 -489 -488 0
-487 489 0
-487 488 0
-474 489 488 0
474 -489 0
474 -488 0
478 -487 -486 0
-478 487 0
-478 486 0
-476 487 486 0
476 -487 0
476 -486 0
479 -485 -484 0
-479 485 0
-479 484 0
-480 485 484 0
480 -485 0
480 -484 0
481 -483 -482 0
-481 483 0
-481 482 0
-417 483 482 0
417 -483 0
417 -482 0
477 -481 -480 0
-477 481 0
-477 480 0
-475 481 480 0
475 -481 0
475 -480 0
425 -479 -478 0
-425 479 0
-425 478 0
-437 479 478 0
437 -479 0
437 -478 0
419 -477 -476 0
-419 477 0
-419 476 0
-441 477 476 0
441 -477 0
441 -476 0
423 -475 -474 0
-423 475 0
-423 474 0
-435 475 474 0
435 -475 0
435 -474 0
473 -23 -22 0
-473 23 0
-473 22 0
-471 23 22 0
471 -23 0
471 -22 0
472 -21 -20 0
-472 21 0
-472 20 0
-470 21 20 0
470 -21 0
470 -20 0
461 -473 -472 0
-461 473 0
-461 472 0
-468 473 472 0
468 -473 0
468 -472 0
469 -471 -470 0
-469 471 0
-469 470 0
-453 471 470 0
453 -471 0
453 -470 0
455 -469 -468 0
-455 469 0
-455 468 0
-459 469 468 0
459 -469 0
459 -468 0
467 -19 -18 0
-467 19 0
-467 18 0
-465 19 18 0
465 -19 0
465 -18 0
466 -17 -16 0
-466 17 0
-466 16 0
-464 17 16 0
464 -17 0
464 -16 0
460 -467 -466 0
-460 467 0
-460 466 0
-462 467 466 0
462 -467 0
462 -466 0
463 -465 -464 0
-463 465 0
-463 464 0
-452 465 464 0
452 -465 0
452 -464 0
454 -463 -462 0
-454 463 0
-454 462 0
-458 463 462 0
458 -463 0
458 -462 0
442 -461 -460 0
-442 461 0
-442 460 0
-456 461 460 0
456 -461 0
456 -460 0
457 -459 -458 0
-457 459 0
-457 458 0
-444 459 458 0
444 -459 0
444 -458 0
448 -457 -456 0
-448 457 0
-448 456 0
-446 457 456 0
446 -457 0
446 -456 0
449 -455 -454 0
-449 455 0
-449 454 0
-450 455 454 0
450 -455 0
450 -454 0
451 -453 -452 0
-451 453 0
-451 452 0
-416 453 452 0
416 -453 0
416 -452 0
447 -451 -450 0
-447 451 0
-447 450 0
-445 451 450 0
445 -451 0
445 -450 0
424 -449 -448 0
-424 449 0
-424 448 0
-436 449 448 0
436 -449 0
436 -448 0
418 -447 -446 0
-418 447 0
-418 446 0
-440 447 446 0
440 -447 0
440 -446 0
422 -445 -444 0
-422 445 0
-422 444 0
-434 445 444 0
434 -445 0
434 -444 0
294 -443 -442 0
-294 443 0
-294 442 0
-438 443 442 0
438 -443 0
438 -442 0
439 -441 -440 0
-439 441 0
-439 440 0
-426 441 440 0
426 -441 0
426 -440 0
430 -439 -438 0
-430 439 0
-430 438 0
-428 439 438 0
428 -439 0
428 -438 0
431 -437 -436 0
-431 437 0
-431 436 0
-432 437 436 0
432 -437 0
432 -436 0
433 -435 -434 0
-433 435 0
-433 434 0
-394 435 434 0
394 -435 0
394 -434 0
429 -433 -432 0
-429 433 0
-429 432 0
-427 433 432 0
427 -433 0
427 -432 0
406 -431 -430 0
-406 431 0
-406 430 0
-404 431 430 0
404 -431 0
404 -430 0
402 -429 -428 0
-402 429 0
-402 428 0
-400 429 428 0
400 -429 0
400 -428 0
398 -427 -426 0
-398 427 0
-398 426 0
-396 427 426 0
396 -427 0
396 -426 0
407 -425 -424 0
-407 425 0
-407 424 0
-420 425 424 0
420 -425 0
420 -424 0
421 -423 -422 0
-421 423 0
-421 422 0
-408 423 422 0
408 -423 0
408 -422 0
412 -421 -420 0
-412 421 0
-412 420 0
-410 421 420 0
410 -421 0
410 -420 0
413 -419 -418 0
-413 419 0
-413 418 0
-414 419 418 0
414 -419 0
414 -418 0
415 -417 -416 0
-415 417 0
-415 416 0
-221 417 416 0
221 -417 0
221 -416 0
411 -415 -414 0
-411 415 0
-411 414 0
-409 415 414 0
409 -415 0
409 -414 0
405 -413 -412 0
-405 413 0
-405 412 0
-403 413 412 0
403 -413 0
403 -412 0
401 -411 -410 0
-401 411 0
-401 410 0
-399 411 410 0
399 -411 0
399 -410 0
397 -409 -408 0
-397 409 0
-397 408 0
-395 409 408 0
395 -409 0
395 -408 0
247 -407 -406 0
-247 407 0
-247 406 0
-279 407 406 0
279 -407 0
279 -406 0
229 -405 -404 0
-229 405 0
-229 404 0
-291 405 404 0
291 -405 0
291 -404 0
241 -403 -402 0
-241 403 0
-241 402 0
-273 403 402 0
273 -403 0
273 -402 0
223 -401 -400 0
-223 401 0
-223 400 0
-293 401 400 0
293 -401 0
293 -400 0
245 -399 -398 0
-245 399 0
-245 398 0
-277 399 398 0
277 -399 0
277 -398 0
227 -397 -396 0
-227 397 0
-227 396 0
-289 397 396 0
289 -397 0
289 -396 0
239 -395 -394 0
-239 395 0
-239 394 0
-271 395 394 0
271 -395 0
271 -394 0
393 -15 -14 0
-393 15 0
-393 14 0
-391 15 14 0
391 -15 0
391 -14 0
392 -13 -12 0
-392 13 0
-392 12 0
-390 13 12 0
390 -13 0
390 -12 0
381 -393 -392 0
-381 393 0
-381 392 0
-388 393 392 0
388 -393 0
388 -392 0
389 -391 -390 0
-389 391 0
-389 390 0
-373 391 390 0
373 -391 0
373 -390 0
375 -389 -388 0
-375 389 0
-375 388 0
-379 389 388 0
379 -389 0
379 -388 0
387 -11 -10 0
-387 11 0
-387 10 0
-385 11 10 0
385 -11 0
385 -10 0
386 -9 -8 0
-386 9 0
-386 8 0
-384 9 8 0
384 -9 0
384 -8 0
380 -387 -386 0
-380 387 0
-380 386 0
-382 387 386 0
382 -387 0
382 -386 0
383 -385 -384 0
-383 385 0
-383 384 0
-372 385 384 0
372 -385 0
372 -384 0
374 -383 -382 0
-374 383 0
-374 382 0
-378 383 382 0
378 -383 0
378 -382 0
341 -381 -380 0
-341 381 0
-341 380 0
-376 381 380 0
376 -381 0
376 -380 0
377 -379 -378 0
-377 379 0
-377 378 0
-364 379 378 0
364 -379 0
364 -378 0
368 -377 -376 0
-368 377 0
-368 376 0
-366 377 376 0
366 -377 0
366 -376 0
369 -375 -374 0
-369 375 0
-369 374 0
-370 375 374 0
370 -375 0
370 -374 0
371 -373 -372 0
-371 373 0
-371 372 0
-318 373 372 0
318 -373 0
318 -372 0
367 -371 -370 0
-367 371 0
-367 370 0
-365 371 370 0
365 -371 0
365 -370 0
326 -369 -368 0
-326 369 0
-326 368 0
-338 369 368 0
338 -369 0
338 -368 0
320 -367 -366 0
-320 367 0
-320 366 0
-340 367 366 0
340 -367 0
340 -366 0
324 -365 -364 0
-324 365 0
-324 364 0
-336 365 364 0
336 -365 0
336 -364 0
363 -7 -6 0
-363 7 0
-363 6 0
-361 7 6 0
361 -7 0
361 -6 0
362 -5 -4 0
-362 5 0
-362 4 0
-360 5 4 0
360 -5 0
360 -4 0
356 -363 -362 0
-356 363 0
-356 362 0
-358 363 362 0
358 -363 0
358 -362 0
359 -361 -360 0
-359 361 0
-359 360 0
-351 361 360 0
351 -361 0
351 -360 0
353 -359 -358 0
-353 359 0
-353 358 0
-355 359 358 0
355 -359 0
355 -358 0
-354 3 0
-354 2 0
-354 1 0
354 -3 -2 -1 0
-357 1 3 0
-357 3 2 0
-357 2 1 0
357 -1 -3 0
357 -3 -2 0
357 -2 -1 0
-352 3 2 1 0
352 -3 0
352 -2 0
352 -1 0
-347 357 0
-347 356 0
-347 355 0
347 -357 -356 -355 0
-345 355 357 0
-345 357 356 0
-345 356 355 0
345 -355 -357 0
345 -357 -356 0
345 -356 -355 0
-343 357 356 355 0
343 -357 0
343 -356 0
343 -355 0
348 -354 -353 0
-348 354 0
-348 353 0
-349 354 353 0
349 -354 0
349 -353 0
350 -352 -351 0
-350 352 0
-350 351 0
-319 352 351 0
319 -352 0
319 -351 0
346 -350 -349 0
-346 350 0
-346 349 0
-344 350 349 0
344 -350 0
344 -349 0
327 -348 -347 0
-327 348 0
-327 347 0
-339 348 347 0
339 -348 0
339 -347 0
321 -346 -345 0
-321 346 0
-321 345 0
-342 346 345 0
342 -346 0
342 -345 0
325 -344 -343 0
-325 344 0
-325 343 0
-337 344 343 0
337 -344 0
337 -343 0
-332 342 0
-332 341 0
-332 340 0
332 -342 -341 -340 0
-330 340 342 0
-330 342 341 0
-330 341 340 0
330 -340 -342 0
330 -342 -341 0
330 -341 -340 0
-328 342 341 340 0
328 -342 0
328 -341 0
328 -340 0
333 -339 -338 0
-333 339 0
-333 338 0
-334 339 338 0
334 -339 0
334 -338 0
335 -337 -336 0
-335 337 0
-335 336 0
-296 337 336 0
296 -337 0
296 -336 0
331 -335 -334 0
-331 335 0
-331 334 0
-329 335 334 0
329 -335 0
329 -334 0
308 -333 -332 0
-308 333 0
-308 332 0
-306 333 332 0
306 -333 0
306 -332 0
304 -331 -330 0
-304 331 0
-304 330 0
-302 331 330 0
302 -331 0
302 -330 0
300 -329 -328 0
-300 329 0
-300 328 0
-298 329 328 0
298 -329 0
298 -328 0
309 -327 -326 0
-309 327 0
-309 326 0
-322 327 326 0
322 -327 0
322 -326 0
323 -325 -324 0
-323 325 0
-323 324 0
-310 325 324 0
310 -325 0
310 -324 0
314 -323 -322 0
-314 323 0
-314 322 0
-312 323 322 0
312 -323 0
312 -322 0
315 -321 -320 0
-315 321 0
-315 320 0
-316 321 320 0
316 -321 0
316 -320 0
317 -319 -318 0
-317 319 0
-317 318 0
-222 319 318 0
222 -319 0
222 -318 0
313 -317 -316 0
-313 317 0
-313 316 0
-311 317 316 0
311 -317 0
311 -316 0
307 -315 -314 0
-307 315 0
-307 314 0
-305 315 314 0
305 -315 0
305 -314 0
303 -313 -312 0
-303 313 0
-303 312 0
-301 313 312 0
301 -313 0
301 -312 0
299 -311 -310 0
-299 311 0
-299 310 0
-297 311 310 0
297 -311 0
297 -310 0
248 -309 -308 0
-248 309 0
-248 308 0
-280 309 308 0
280 -309 0
280 -308 0
230 -307 -306 0
-230 307 0
-230 306 0
-292 307 306 0
292 -307 0
292 -306 0
242 -305 -304 0
-242 305 0
-242 304 0
-274 305 304 0
274 -305 0
274 -304 0
224 -303 -302 0
-224 303 0
-224 302 0
-295 303 302 0
295 -303 0
295 -302 0
246 -301 -300 0
-246 301 0
-246 300 0
-278 301 300 0
278 -301 0
278 -300 0
228 -299 -298 0
-228 299 0
-228 298 0
-290 299 298 0
290 -299 0
290 -298 0
240 -297 -296 0
-240 297 0
-240 296 0
-272 297 296 0
272 -297 0
272 -296 0
-285 295 0
-285 294 0
-285 293 0
285 -295 -294 -293 0
-283 293 295 0
-283 295 294 0
-283 294 293 0
283 -293 -295 0
283 -295 -294 0
283 -294 -293 0
-281 295 294 293 0
281 -295 0
281 -294 0
281 -293 0
286 -292 -291 0
-286 292 0
-286 291 0
-287 292 291 0
287 -292 0
287 -291 0
288 -290 -289 0
-288 290 0
-288 289 0
-249 290 289 0
249 -290 0
249 -289 0
284 -288 -287 0
-284 288 0
-284 287 0
-282 288 287 0
282 -288 0
282 -287 0
261 -286 -285 0
-261 286 0
-261 285 0
-259 286 285 0
259 -286 0
259 -285 0
257 -284 -283 0
-257 284 0
-257 283 0
-255 284 283 0
255 -284 0
255 -283 0
253 -282 -281 0
-253 282 0
-253 281 0
-251 282 281 0
251 -282 0
251 -281 0
262 -280 -279 0
-262 280 0
-262 279 0
-275 280 279 0
275 -280 0
275 -279 0
276 -278 -277 0
-276 278 0
-276 277 0
-263 278 277 0
263 -278 0
263 -277 0
267 -276 -275 0
-267 276 0
-267 275 0
-265 276 275 0
265 -276 0
265 -275 0
268 -274 -273 0
-268 274 0
-268 273 0
-269 274 273 0
269 -274 0
269 -273 0
270 -272 -271 0
-270 272 0
-270 271 0
-171 272 271 0
171 -272 0
171 -271 0
266 -270 -269 0
-266 270 0
-266 269 0
-264 270 269 0
264 -270 0
264 -269 0
260 -268 -267 0
-260 268 0
-260 267 0
-258 268 267 0
258 -268 0
258 -267 0
256 -266 -265 0
-256 266 0
-256 265 0
-254 266 265 0
254 -266 0
254 -265 0
252 -264 -263 0
-252 264 0
-252 263 0
-250 264 263 0
250 -264 0
250 -263 0
-262 -261 0
-197 262 261 0
197 -262 0
197 -261 0
195 -260 -259 0
-195 260 0
-195 259 0
-193 260 259 0
193 -260 0
193 -259 0
191 -258 -257 0
-191 258 0
-191 257 0
-189 258 257 0
189 -258 0
189 -257 0
187 -256 -255 0
-187 256 0
-187 255 0
-185 256 255 0
185 -256 0
185 -255 0
183 -254 -253 0
-183 254 0
-183 253 0
-181 254 253 0
181 -254 0
181 -253 0
179 -252 -251 0
-179 252 0
-179 251 0
-177 252 251 0
177 -252 0
177 -251 0
175 -250 -249 0
-175 250 0
-175 249 0
-173 250 249 0
173 -250 0
173 -249 0
-248 -247 0
-243 248 247 0
243 -248 0
243 -247 0
244 -246 -245 0
-244 246 0
-244 245 0
-231 246 245 0
231 -246 0
231 -245 0
235 -244 -243 0
-235 244 0
-235 243 0
-233 244 243 0
233 -244 0
233 -243 0
236 -242 -241 0
-236 242 0
-236 241 0
-237 242 241 0
237 -242 0
237 -241 0
238 -240 -239 0
-238 240 0
-238 239 0
-199 240 239 0
199 -240 0
199 -239 0
234 -238 -237 0
-234 238 0
-234 237 0
-232 238 237 0
232 -238 0
232 -237 0
211 -236 -235 0
-211 236 0
-211 235 0
-209 236 235 0
209 -236 0
209 -235 0
207 -234 -233 0
-207 234 0
-207 233 0
-205 234 233 0
205 -234 0
205 -233 0
203 -232 -231 0
-203 232 0
-203 231 0
-201 232 231 0
201 -232 0
201 -231 0
212 -230 -229 0
-212 230 0
-212 229 0
-225 230 229 0
225 -230 0
225 -229 0
226 -228 -227 0
-226 228 0
-226 227 0
-213 228 227 0
213 -228 0
213 -227 0
217 -226 -225 0
-217 226 0
-217 225 0
-215 226 225 0
215 -226 0
215 -225 0
218 -224 -223 0
-218 224 0
-218 223 0
-219 224 223 0
219 -224 0
219 -223 0
220 -222 -221 0
-220 222 0
-220 221 0
-73 222 221 0
73 -222 0
73 -221 0
216 -220 -219 0
-216 220 0
-216 219 0
-214 220 219 0
214 -220 0
214 -219 0
210 -218 -217 0
-210 218 0
-210 217 0
-208 218 217 0
208 -218 0
208 -217 0
206 -216 -215 0
-206 216 0
-206 215 0
-204 216 215 0
204 -216 0
204 -215 0
202 -214 -213 0
-202 214 0
-202 213 0
-200 214 213 0
200 -214 0
200 -213 0
198 -212 -211 0
-198 212 0
-198 211 0
-196 212 211 0
196 -212 0
196 -211 0
194 -210 -209 0
-194 210 0
-194 209 0
-192 210 209 0
192 -210 0
192 -209 0
190 -208 -207 0
-190 208 0
-190 207 0
-188 208 207 0
188 -208 0
188 -207 0
186 -206 -205 0
-186 206 0
-186 205 0
-184 206 205 0
184 -206 0
184 -205 0
182 -204 -203 0
-182 204 0
-182 203 0
-180 204 203 0
180 -204 0
180 -203 0
178 -202 -201 0
-178 202 0
-178 201 0
-176 202 201 0
176 -202 0
176 -201 0
174 -200 -199 0
-174 200 0
-174 199 0
-172 200 199 0
172 -200 0
172 -199 0
95 -198 -197 0
-95 198 0
-95 197 0
-159 198 197 0
159 -198 0
159 -197 0
111 -196 -195 0
-111 196 0
-111 195 0
-135 196 195 0
135 -196 0
135 -195 0
81 -194 -193 0
-81 194 0
-81 193 0
-167 194 193 0
167 -194 0
167 -193 0
119 -192 -191 0
-119 192 0
-119 191 0
-141 192 191 0
141 -192 0
141 -191 0
89 -190 -189 0
-89 190 0
-89 189 0
-153 190 189 0
153 -190 0
153 -189 0
105 -188 -187 0
-105 188 0
-105 187 0
-129 188 187 0
129 -188 0
129 -187 0
75 -186 -185 0
-75 186 0
-75 185 0
-170 186 185 0
170 -186 0
170 -185 0
121 -184 -183 0
-121 184 0
-121 183 0
-143 184 183 0
143 -184 0
143 -183 0
93 -182 -181 0
-93 182 0
-93 181 0
-157 182 181 0
157 -182 0
157 -181 0
109 -180 -179 0
-109 180 0
-109 179 0
-133 180 179 0
133 -180 0
133 -179 0
79 -178 -177 0
-79 178 0
-79 177 0
-165 178 177 0
165 -178 0
165 -177 0
117 -176 -175 0
-117 176 0
-117 175 0
-139 176 175 0
139 -176 0
139 -175 0
87 -174 -173 0
-87 174 0
-87 173 0
-151 174 173 0
151 -174 0
151 -173 0
103 -172 -171 0
-103 172 0
-103 171 0
-127 172 171 0
127 -172 0
127 -171 0
-170 -169 -168 0
-168 -170 0
-170 -169 0
-169 -168 0
-160 170 169 168 0
160 -170 0
160 -169 0
160 -168 0
-167 -166 0
-162 167 166 0
162 -167 0
162 -166 0
163 -165 -164 0
-163 165 0
-163 164 0
-163 -162 0
-161 163 162 0
161 -163 0
161 -162 0
144 -161 -160 0
-144 161 0
-144 160 0
-159 -158 0
-154 159 158 0
154 -159 0
154 -158 0
155 -157 -156 0
-155 157 0
-155 156 0
-155 -154 0
-146 155 154 0
146 -155 0
146 -154 0
-153 -152 0
-148 153 152 0
148 -153 0
148 -152 0
149 -151 -150 0
-149 151 0
-149 150 0
147 -149 -148 0
-147 149 0
-147 148 0
-147 -146 0
-145 147 146 0
145 -147 0
145 -146 0
-145 -144 0
-143 -142 0
-141 -140 0
-136 141 140 0
136 -141 0
136 -140 0
137 -139 -138 0
-137 139 0
-137 138 0
-137 -136 0
-135 -134 0
-130 135 134 0
130 -135 0
130 -134 0
131 -133 -132 0
-131 133 0
-131 132 0
-131 -130 0
-122 131 130 0
122 -131 0
122 -130 0
-129 -128 0
-124 129 128 0
124 -129 0
124 -128 0
125 -127 -126 0
-125 127 0
-125 126 0
123 -125 -124 0
-123 125 0
-123 124 0
-123 -122 0
-121 -120 0
-112 121 120 0
112 -121 0
112 -120 0
-119 -118 0
-114 119 118 0
114 -119 0
114 -118 0
115 -117 -116 0
-115 117 0
-115 116 0
-115 -114 0
-113 115 114 0
113 -115 0
113 -114 0
96 -113 -112 0
-96 113 0
-96 112 0
-111 -110 0
-106 111 110 0
106 -111 0
106 -110 0
107 -109 -108 0
-107 109 0
-107 108 0
-107 -106 0
-98 107 106 0
98 -107 0
98 -106 0
-105 -104 0
-100 105 104 0
100 -105 0
100 -104 0
101 -103 -102 0
-101 103 0
-101 102 0
99 -101 -100 0
-99 101 0
-99 100 0
-99 -98 0
-97 99 98 0
97 -99 0
97 -98 0
64 -97 -96 0
-64 97 0
-64 96 0
-95 -94 0
-90 95 94 0
90 -95 0
90 -94 0
91 -93 -92 0
-91 93 0
-91 92 0
-91 -90 0
-82 91 90 0
82 -91 0
82 -90 0
-89 -88 0
-84 89 88 0
84 -89 0
84 -88 0
85 -87 -86 0
-85 87 0
-85 86 0
83 -85 -84 0
-83 85 0
-83 84 0
-83 -82 0
-66 83 82 0
66 -83 0
66 -82 0
-81 -80 0
-76 81 80 0
76 -81 0
76 -80 0
77 -79 -78 0
-77 79 0
-77 78 0
-77 -76 0
-68 77 76 0
68 -77 0
68 -76 0
-75 -74 0
-70 75 74 0
70 -75 0
70 -74 0
71 -73 -72 0
-71 73 0
-71 72 0
69 -71 -70 0
-69 71 0
-69 70 0
67 -69 -68 0
-67 69 0
-67 68 0
-67 -66 0
-65 67 66 0
65 -67 0
65 -66 0
-65 -64 0
62 63 54 53 0
62 54 44 52 0
61 62 53 52 0
62 45 34 51 0
61 53 43 51 0
60 61 52 51 0
62 36 24 50 0
61 44 33 50 0
60 52 42 50 0
59 60 51 50 0
62 27 14 49 0
61 35 23 49 0
60 43 32 49 0
59 51 41 49 0
58 59 50 49 0
62 18 4 48 0
61 26 13 48 0
60 34 22 48 0
59 42 31 48 0
58 50 40 48 0
57 58 49 48 0
61 17 3 47 0
60 25 12 47 0
59 33 21 47 0
58 41 30 47 0
57 49 39 47 0
56 57 48 47 0
60 16 2 46 0
59 24 11 46 0
58 32 20 46 0
57 40 29 46 0
56 48 38 46 0
55 56 47 46 0
53 54 45 44 0
61 63 45 43 0
53 45 35 43 0
52 53 44 43 0
61 54 35 42 0
60 62 44 42 0
53 36 25 42 0
52 44 34 42 0
51 52 43 42 0
61 45 25 41 0
60 53 34 41 0
59 61 43 41 0
53 27 15 41 0
52 35 24 41 0
51 43 33 41 0
50 51 42 41 0
61 36 15 40 0
60 44 24 40 0
59 52 33 40 0
58 60 42 40 0
53 18 5 40 0
52 26 14 40 0
51 34 23 40 0
50 42 32 40 0
49 50 41 40 0
61 27 5 39 0
60 35 14 39 0
59 43 23 39 0
58 51 32 39 0
57 59 41 39 0
52 17 4 39 0
51 25 13 39 0
50 33 22 39 0
49 41 31 39 0
48 49 40 39 0
60 26 4 38 0
59 34 13 38 0
58 42 22 38 0
57 50 31 38 0
56 58 40 38 0
51 16 3 38 0
50 24 12 38 0
49 32 21 38 0
48 40 30 38 0
47 48 39 38 0
59 25 3 37 0
58 33 12 37 0
57 41 21 37 0
56 49 30 37 0
55 57 39 37 0
50 15 2 37 0
49 23 11 37 0
48 31 20 37 0
47 39 29 37 0
46 47 38 37 0
44 45 36 35 0
52 54 36 34 0
44 36 26 34 0
43 44 35 34 0
60 63 36 33 0
52 45 26 33 0
51 53 35 33 0
44 27 16 33 0
43 35 25 33 0
42 43 34 33 0
60 54 26 32 0
59 62 35 32 0
52 36 16 32 0
51 44 25 32 0
50 52 34 32 0
44 18 6 32 0
43 26 15 32 0
42 34 24 32 0
41 42 33 32 0
60 45 16 31 0
59 53 25 31 0
58 61 34 31 0
52 27 6 31 0
51 35 15 31 0
50 43 24 31 0
49 51 33 31 0
43 17 5 31 0
42 25 14 31 0
41 33 23 31 0
40 41 32 31 0
60 36 6 30 0
59 44 15 30 0
58 52 24 30 0
57 60 33 30 0
51 26 5 30 0
50 34 14 30 0
49 42 23 30 0
48 50 32 30 0
42 16 4 30 0
41 24 13 30 0
40 32 22 30 0
39 40 31 30 0
59 35 5 29 0
58 43 14 29 0
57 51 23 29 0
56 59 32 29 0
50 25 4 29 0
49 33 13 29 0
48 41 22 29 0
47 49 31 29 0
41 15 3 29 0
40 23 12 29 0
39 31 21 29 0
38 39 30 29 0
58 34 4 28 0
57 42 13 28 0
56 50 22 28 0
55 58 31 28 0
49 24 3 28 0
48 32 12 28 0
47 40 21 28 0
46 48 30 28 0
40 14 2 28 0
39 22 11 28 0
38 30 20 28 0
37 38 29 28 0
35 36 27 26 0
43 45 27 25 0
35 27 17 25 0
34 35 26 25 0
51 54 27 24 0
43 36 17 24 0
42 44 26 24 0
35 18 7 24 0
34 26 16 24 0
33 34 25 24 0
59 63 27 23 0
51 45 17 23 0
50 53 26 23 0
43 27 7 23 0
42 35 16 23 0
41 43 25 23 0
34 17 6 23 0
33 25 15 23 0
32 33 24 23 0
59 54 17 22 0
58 62 26 22 0
51 36 7 22 0
50 44 16 22 0
49 52 25 22 0
42 26 6 22 0
41 34 15 22 0
40 42 24 22 0
33 16 5 22 0
32 24 14 22 0
31 32 23 22 0
59 45 7 21 0
58 53 16 21 0
57 61 25 21 0
50 35 6 21 0
49 43 15 21 0
48 51 24 21 0
41 25 5 21 0
40 33 14 21 0
39 41 23 21 0
32 15 4 21 0
31 23 13 21 0
30 31 22 21 0
58 44 6 20 0
57 52 15 20 0
56 60 24 20 0
49 34 5 20 0
48 42 14 20 0
47 50 23 20 0
40 24 4 20 0
39 32 13 20 0
38 40 22 20 0
31 14 3 20 0
30 22 12 20 0
29 30 21 20 0
57 43 5 19 0
56 51 14 19 0
55 59 23 19 0
48 33 4 19 0
47 41 13 19 0
46 49 22 19 0
39 23 3 19 0
38 31 12 19 0
37 39 21 19 0
30 13 2 19 0
29 21 11 19 0
28 29 20 19 0
26 27 18 17 0
34 36 18 16 0
26 18 8 16 0
25 26 17 16 0
42 45 18 15 0
34 27 8 15 0
33 35 17 15 0
25 17 7 15 0
24 25 16 15 0
50 54 18 14 0
42 36 8 14 0
41 44 17 14 0
33 26 7 14 0
32 34 16 14 0
24 16 6 14 0
23 24 15 14 0
58 63 18 13 0
50 45 8 13 0
49 53 17 13 0
41 35 7 13 0
40 43 16 13 0
32 25 6 13 0
31 33 15 13 0
23 15 5 13 0
22 23 14 13 0
58 54 8 12 0
57 62 17 12 0
49 44 7 12 0
48 52 16 12 0
40 34 6 12 0
39 42 15 12 0
31 24 5 12 0
30 32 14 12 0
22 14 4 12 0
21 22 13 12 0
57 53 7 11 0
56 61 16 11 0
48 43 6 11 0
47 51 15 11 0
39 33 5 11 0
38 41 14 11 0
30 23 4 11 0
29 31 13 11 0
21 13 3 11 0
20 21 12 11 0
56 52 6 10 0
55 60 15 10 0
47 42 5 10 0
46 50 14 10 0
38 32 4 10 0
37 40 13 10 0
29 22 3 10 0
28 30 12 10 0
20 12 2 10 0
19 20 11 10 0
17 18 9 8 0
25 27 9 7 0
16 17 8 7 0
33 36 9 6 0
24 26 8 6 0
15 16 7 6 0
41 45 9 5 0
32 35 8 5 0
23 25 7 5 0
14 15 6 5 0
49 54 9 4 0
40 44 8 4 0
31 34 7 4 0
22 24 6 4 0
13 14 5 4 0
57 63 9 3 0
48 53 8 3 0
39 43 7 3 0
30 33 6 3 0
21 23 5 3 0
12 13 4 3 0
56 62 8 2 0
47 52 7 2 0
38 42 6 2 0
29 32 5 2 0
20 22 4 2 0
11 12 3 2 0
55 61 7 1 0
46 51 6 1 0
37 41 5 1 0
28 31 4 1 0
19 21 3 1 0
10 11 2 1 0
